\ This file has been generated by DOcplex
\ ENCODING=ISO-8859-1
\Problem name: random_problem.lp

Minimize
 obj: 3 x0 + x1 + 8 x2 - 5 x3 - 6 x4 - 8 x5 + 3 x6 + 6 x7 - x8 - 7 x9 + 7 x10
      - 5 x11 - 2 x12 - 9 x13 + 4 x14 - 7 x15 - 7 x16 - 2 x17 + x18 + 10 x19
      - 9 x20 + 6 x21 + 2 x22 + 2 x24 - 8 x25 + 7 x26 - 5 x27 + 5 x28 - 2 x29
      - 2 x30 - 2 x31 + 3 x32 + 6 x34 + 4 x35 + 4 x36 + 3 x37 + 10 x38 + 6 x39
      - 2 x40 + 8 x41 - 6 x42 + x43 - 5 x44 - 6 x45 - x46 - 3 x47 + 10 x48 - x49
      - 5 x50 - 3 x51 + 8 x52 + 3 x53 - 9 x54 - 3 x55 - 6 x56 - 2 x57 - 10 x58
      - 4 x59 - 7 x60 - 4 x61 - 8 x62 + 6 x63 + 7 x64 + x65 - 4 x66 + 9 x67
      + 9 x68 + x69 + 8 x70 + 8 x71 + 3 x72 + 9 x73 + 10 x74 + [ 16 x0*x4
      + 20 x0*x20 - 16 x0*x25 + 10 x0*x28 + 6 x0*x32 + 14 x0*x36 - 6 x0*x37
      + 16 x0*x41 + 14 x0*x47 - 12 x0*x54 + 6 x1*x6 + 14 x1*x7 - 6 x1*x8
      - 10 x1*x23 - 12 x1*x31 + 8 x1*x32 + 20 x1*x41 - 16 x1*x45 + 10 x1*x50
      + 12 x1*x60 - 12 x2*x17 - 10 x2*x19 - 12 x2*x29 + 2 x2*x30 - 6 x2*x34
      + 4 x2*x38 - 8 x2*x39 - 20 x2*x46 + 20 x2*x59 - 2 x2*x69 + 10 x3*x4
      - 6 x3*x8 + 16 x3*x22 - 10 x3*x29 + 18 x3*x31 + 6 x3*x36 - 14 x3*x42
      + 4 x3*x46 + 6 x3*x50 + 10 x3*x55 - 18 x4*x11 - 4 x4*x15 + 18 x4*x17
      + 18 x4*x21 - 6 x4*x26 + 20 x4*x51 + 14 x4*x55 + 8 x4*x56 - 18 x5*x23
      - 20 x5*x24 + 14 x5*x34 + 14 x5*x41 + 8 x5*x48 + 6 x5*x62 - 16 x5*x65
      - 4 x5*x71 - 6 x5*x72 + 10 x5*x73 - 8 x6*x12 - 8 x6*x14 - 18 x6*x28
      - 4 x6*x31 - 16 x6*x35 + 10 x6*x36 - 6 x6*x42 - 8 x6*x53 + 20 x6*x56
      + 6 x7*x15 + 8 x7*x18 + 18 x7*x19 - 4 x7*x31 - 4 x7*x37 - 14 x7*x40
      + 6 x7*x42 + 18 x7*x61 - 8 x7*x67 + 10 x8*x11 + 2 x8*x40 - 18 x8*x47
      - 12 x8*x48 + 12 x8*x53 + 2 x8*x69 + 6 x8*x70 + 6 x8*x72 - 16 x9*x12
      - 2 x9*x19 - 12 x9*x22 - 12 x9*x28 - 2 x9*x32 + 16 x9*x42 + 18 x9*x52
      + 10 x9*x59 + 2 x9*x64 + 8 x9*x66 - 20 x10*x12 - 16 x10*x15 + 4 x10*x25
      - 6 x10*x28 + 2 x10*x45 - 18 x10*x53 + 8 x10*x62 - 20 x10*x65 + 6 x10*x67
      + 4 x10*x69 + 6 x11*x16 - 18 x11*x23 + 6 x11*x35 - 16 x11*x49 - 6 x11*x51
      + 12 x11*x61 + 12 x11*x62 + 6 x11*x68 + 4 x12*x20 - 8 x12*x24 - 8 x12*x38
      + 12 x12*x66 - 10 x12*x67 + 4 x12*x68 + 14 x12*x72 + 4 x13*x21
      + 16 x13*x25 + 18 x13*x30 + 8 x13*x37 + 10 x13*x46 - 10 x13*x61
      - 2 x13*x63 - 4 x13*x64 + 4 x13*x67 - 20 x13*x68 - 14 x14*x21 - 8 x14*x23
      + 2 x14*x24 + 18 x14*x27 - 12 x14*x28 + 4 x14*x30 + 2 x14*x34 - 4 x14*x52
      + 2 x14*x71 + 16 x15*x16 - 2 x15*x18 - 6 x15*x25 - 20 x15*x31 - 14 x15*x47
      + 12 x15*x50 + 12 x15*x73 + 10 x16*x18 + 16 x16*x24 - 10 x16*x27
      - 10 x16*x33 - 10 x16*x34 - 20 x16*x64 + 10 x16*x69 + 2 x16*x74
      + 18 x17*x25 + 6 x17*x30 + 12 x17*x38 + 10 x17*x40 - 10 x17*x50
      + 14 x17*x58 - 8 x17*x61 + 14 x17*x67 - 12 x18*x20 + 12 x18*x35
      - 8 x18*x43 + 16 x18*x48 + 18 x18*x62 - 6 x18*x65 + 14 x18*x70
      - 12 x19*x26 + 20 x19*x30 - 20 x19*x34 - 6 x19*x42 - 12 x19*x44
      + 14 x19*x57 - 20 x19*x64 - 6 x20*x23 - 10 x20*x32 - 8 x20*x35
      + 20 x20*x36 - 2 x20*x53 + 4 x20*x59 + 14 x20*x73 + 14 x21*x26 - 4 x21*x31
      + 20 x21*x32 - 18 x21*x34 + 14 x21*x39 + 4 x21*x59 + 14 x21*x74
      - 12 x22*x27 + 8 x22*x30 - 16 x22*x39 - 2 x22*x40 + 20 x22*x45
      - 12 x22*x52 - 4 x22*x60 + 8 x22*x66 + 20 x23*x26 - 18 x23*x39 - 6 x23*x45
      + 12 x23*x48 + 20 x23*x57 - 18 x24*x26 - 14 x24*x27 + 4 x24*x29
      - 16 x24*x52 + 16 x24*x61 - 18 x24*x62 - 16 x25*x27 - 12 x25*x39
      + 4 x25*x46 - 8 x25*x51 - 10 x25*x63 + 14 x26*x34 - 4 x26*x43 + 2 x26*x48
      - 20 x26*x55 - 2 x26*x64 - 20 x27*x45 - 16 x27*x46 - 6 x27*x53
      + 16 x27*x62 + 8 x27*x71 - 12 x28*x36 + 2 x28*x37 + 12 x28*x38 + 8 x28*x67
      + 20 x28*x68 - 2 x29*x35 + 8 x29*x37 - 20 x29*x40 + 10 x29*x45 + 8 x29*x47
      - 10 x29*x58 + 6 x29*x72 + 4 x30*x36 - 4 x30*x50 - 16 x30*x52 - 20 x30*x72
      - 2 x31*x42 - 6 x31*x45 - 14 x31*x48 - 16 x31*x63 - 6 x32*x44 + 20 x32*x55
      + 2 x32*x60 - 18 x32*x62 - 16 x32*x69 + 18 x33*x36 + 16 x33*x38
      + 8 x33*x41 - 2 x33*x44 + 18 x33*x54 + 10 x33*x57 - 18 x33*x60
      - 20 x33*x63 + 18 x33*x69 - 14 x34*x46 - 8 x34*x49 - 8 x34*x67
      + 10 x35*x38 - 8 x35*x42 - 20 x35*x49 + 14 x35*x50 - 12 x35*x68
      - 12 x36*x43 - 14 x36*x53 + 10 x36*x66 + 16 x37*x51 - 4 x37*x59
      - 12 x37*x60 + 8 x37*x70 + 2 x37*x73 + 6 x38*x44 - 14 x38*x55 - 20 x38*x58
      + 4 x38*x64 - 18 x39*x44 - 8 x39*x49 + 16 x39*x60 + 14 x39*x64 + 4 x39*x73
      + 6 x40*x44 + 4 x40*x45 + 14 x40*x53 + 6 x40*x54 - 2 x40*x60 + 10 x41*x43
      + 12 x41*x45 - 18 x41*x55 + 12 x41*x61 + 18 x41*x63 - 12 x41*x68
      - 4 x42*x66 - 2 x42*x70 - 12 x42*x73 + 20 x43*x47 + 12 x43*x48 - 8 x43*x49
      + 14 x43*x58 + 16 x43*x69 + 2 x43*x72 + 2 x44*x49 - 14 x44*x56
      - 14 x44*x57 + 20 x44*x61 + 20 x45*x68 - 18 x46*x47 - 20 x46*x61
      + 8 x46*x67 - 18 x46*x74 - 20 x47*x51 - 8 x47*x63 - 12 x47*x65 + 2 x47*x70
      - 8 x48*x50 - 6 x48*x59 - 10 x48*x60 + 14 x49*x57 - 10 x49*x64
      + 14 x49*x70 - 8 x49*x73 - 18 x50*x54 - 4 x50*x56 + 2 x50*x58 - 14 x51*x59
      - 4 x51*x66 - 16 x51*x70 + 10 x51*x73 - 14 x51*x74 - 18 x52*x55
      + 16 x52*x56 - 16 x52*x57 - 12 x52*x60 - 8 x52*x71 - 4 x53*x54 - 6 x53*x57
      + 6 x53*x65 - 6 x54*x57 - 4 x54*x58 + 6 x54*x63 + 8 x54*x68 + 14 x54*x71
      - 10 x55*x56 + 2 x55*x65 + 6 x55*x68 - 4 x56*x57 + 18 x56*x58 - 6 x56*x62
      + 16 x56*x63 - 20 x57*x69 + 18 x58*x59 + 20 x58*x70 + 16 x58*x72
      + 4 x59*x63 - 14 x59*x66 + 4 x60*x64 - 2 x61*x67 + 4 x61*x69 - 18 x62*x65
      + 4 x62*x70 + 14 x63*x65 - 12 x64*x72 + 18 x65*x69 - 16 x65*x72
      + 20 x66*x70 - 14 x66*x71 + 6 x66*x74 - 2 x67*x74 - 6 x68*x73 - 12 x71*x72
      + 16 x71*x73 + 20 x71*x74 ]/2
Subject To
 c0: - x0 - x6 - 2 x8 + 2 x9 - 2 x15 - 2 x16 + x24 - x27 - x45 - x55 = 0
 c1: x16 + x24 + x25 + x33 - 2 x35 - x52 + 2 x58 + x60 + 2 x63 + 2 x71 = 1
 c2: - x1 - x19 + 2 x23 + x33 + x46 + x51 + x56 - 2 x57 - x63 + 2 x70 = -2
 c3: - 2 x5 - x7 + 2 x11 - 2 x15 + 2 x23 + x28 + x35 + x58 - 2 x61 + x73 = 0
 c4: x1 + x10 + 2 x20 - x27 + 2 x39 + 2 x45 - 2 x48 + x49 - 2 x60 - x68 = 0
 c5: - 2 x14 + 2 x21 - x31 - 2 x42 + 2 x44 + x47 - x51 + 2 x53 + 2 x55 - 2 x71
      = -2
 c6: - x1 - 2 x3 + x8 - x18 - 2 x29 - 2 x34 - 2 x45 + 2 x49 - x61 - 2 x74 = -1
 c7: - x14 - 2 x18 - x19 - 2 x20 - x32 + 2 x46 + x67 + x70 - 2 x71 - 2 x74 = 0
 c8: - 2 x26 + 2 x28 - x35 + x41 - x43 + 2 x44 + 2 x48 - x58 - 2 x60 - 2 x63 = 
     -2
 c9: - 2 x15 - 2 x16 - x19 + x28 - x29 - 2 x41 + 2 x44 - 2 x53 + 2 x54 - x56 = 
     -1
 c10: 2 x6 - 2 x15 - 2 x17 + 2 x29 + x33 - 2 x40 + 2 x42 + x45 - 2 x46 - 2 x50
       = -1
 c11: x6 - x30 - 2 x31 + x35 + 2 x41 - x45 + 2 x47 - 2 x49 + x53 - x55 = 1
 c12: - 2 x11 + 2 x23 - x31 - x38 + x44 + 2 x48 - 2 x64 + x68 - 2 x69 + 2 x71
       = -1
 c13: - x2 - 2 x3 - x20 - 2 x25 - x31 - x34 - x41 - 2 x45 + x57 - 2 x73 = 0
 c14: - x0 - 2 x6 - 2 x9 - x18 + 2 x25 - 2 x28 - x30 + x55 + x57 - x71 = 1

Bounds
 0 <= x0 <= 1
 0 <= x1 <= 1
 0 <= x2 <= 1
 0 <= x3 <= 1
 0 <= x4 <= 1
 0 <= x5 <= 1
 0 <= x6 <= 1
 0 <= x7 <= 1
 0 <= x8 <= 1
 0 <= x9 <= 1
 0 <= x10 <= 1
 0 <= x11 <= 1
 0 <= x12 <= 1
 0 <= x13 <= 1
 0 <= x14 <= 1
 0 <= x15 <= 1
 0 <= x16 <= 1
 0 <= x17 <= 1
 0 <= x18 <= 1
 0 <= x19 <= 1
 0 <= x20 <= 1
 0 <= x21 <= 1
 0 <= x22 <= 1
 0 <= x23 <= 1
 0 <= x24 <= 1
 0 <= x25 <= 1
 0 <= x26 <= 1
 0 <= x27 <= 1
 0 <= x28 <= 1
 0 <= x29 <= 1
 0 <= x30 <= 1
 0 <= x31 <= 1
 0 <= x32 <= 1
 0 <= x33 <= 1
 0 <= x34 <= 1
 0 <= x35 <= 1
 0 <= x36 <= 1
 0 <= x37 <= 1
 0 <= x38 <= 1
 0 <= x39 <= 1
 0 <= x40 <= 1
 0 <= x41 <= 1
 0 <= x42 <= 1
 0 <= x43 <= 1
 0 <= x44 <= 1
 0 <= x45 <= 1
 0 <= x46 <= 1
 0 <= x47 <= 1
 0 <= x48 <= 1
 0 <= x49 <= 1
 0 <= x50 <= 1
 0 <= x51 <= 1
 0 <= x52 <= 1
 0 <= x53 <= 1
 0 <= x54 <= 1
 0 <= x55 <= 1
 0 <= x56 <= 1
 0 <= x57 <= 1
 0 <= x58 <= 1
 0 <= x59 <= 1
 0 <= x60 <= 1
 0 <= x61 <= 1
 0 <= x62 <= 1
 0 <= x63 <= 1
 0 <= x64 <= 1
 0 <= x65 <= 1
 0 <= x66 <= 1
 0 <= x67 <= 1
 0 <= x68 <= 1
 0 <= x69 <= 1
 0 <= x70 <= 1
 0 <= x71 <= 1
 0 <= x72 <= 1
 0 <= x73 <= 1
 0 <= x74 <= 1

Binaries
 x0 x1 x2 x3 x4 x5 x6 x7 x8 x9 x10 x11 x12 x13 x14 x15 x16 x17 x18 x19 x20 x21
 x22 x23 x24 x25 x26 x27 x28 x29 x30 x31 x32 x33 x34 x35 x36 x37 x38 x39 x40 x41
 x42 x43 x44 x45 x46 x47 x48 x49 x50 x51 x52 x53 x54 x55 x56 x57 x58 x59 x60 x61
 x62 x63 x64 x65 x66 x67 x68 x69 x70 x71 x72 x73 x74
End
